(set-logic QF_UF)
(declare-fun A0 () Bool)
(declare-fun A1 () Bool)
(declare-fun A2 () Bool)
(declare-fun A3 () Bool)
(declare-fun A4 () Bool)
(declare-fun A5 () Bool)
(declare-fun A6 () Bool)
(declare-fun A7 () Bool)
(declare-fun A8 () Bool)
(declare-fun A9 () Bool)
(declare-fun A10 () Bool)
(declare-fun A11 () Bool)
(declare-fun A13 () Bool)
(declare-fun A14 () Bool)
(declare-fun A15 () Bool)
(declare-fun A16 () Bool)
(declare-fun A17 () Bool)
(declare-fun A18 () Bool)
(declare-fun A19 () Bool)
(declare-fun A20 () Bool)
(declare-fun A21 () Bool)
(declare-fun A22 () Bool)
(declare-fun A23 () Bool)
(declare-fun A24 () Bool)
(declare-fun A26 () Bool)
(declare-fun A27 () Bool)
(declare-fun A28 () Bool)
(declare-fun A29 () Bool)
(assert (let ((.def_0 (not A14))) (let ((.def_1 (or .def_0 A8))) (let ((.def_2 (not .def_1))) (let ((.def_3 (not A20))) (let ((.def_4 (not A18))) (let ((.def_5 (or .def_4 .def_3))) (let ((.def_6 (not .def_5))) (let ((.def_7 (or .def_6 .def_2))) (let ((.def_8 (not .def_7))) (let ((.def_9 (not A11))) (let ((.def_10 (= .def_9 A5))) (let ((.def_11 (not .def_10))) (let ((.def_12 (and A18 A15))) (let ((.def_13 (not .def_12))) (let ((.def_14 (and .def_13 .def_11))) (let ((.def_15 (not .def_14))) (let ((.def_16 (or .def_15 .def_8))) (let ((.def_17 (not A23))) (let ((.def_18 (not A13))) (let ((.def_19 (or .def_18 .def_17))) (let ((.def_20 (not A26))) (let ((.def_21 (or .def_20 A10))) (let ((.def_22 (not .def_21))) (let ((.def_23 (or .def_22 .def_19))) (let ((.def_24 (not .def_23))) (let ((.def_25 (and A26 A0))) (let ((.def_26 (or A14 A14))) (let ((.def_27 (and .def_26 .def_25))) (let ((.def_28 (not .def_27))) (let ((.def_29 (and .def_28 .def_24))) (let ((.def_30 (= .def_29 .def_16))) (let ((.def_31 (not A0))) (let ((.def_32 (and .def_31 A5))) (let ((.def_33 (not .def_32))) (let ((.def_34 (not A5))) (let ((.def_35 (and A21 .def_34))) (let ((.def_36 (and .def_35 .def_33))) (let ((.def_37 (not .def_36))) (let ((.def_38 (not A28))) (let ((.def_39 (not A4))) (let ((.def_40 (or .def_39 .def_38))) (let ((.def_41 (or .def_9 A2))) (let ((.def_42 (or .def_41 .def_40))) (let ((.def_43 (not .def_42))) (let ((.def_44 (and .def_43 .def_37))) (let ((.def_45 (and A18 .def_20))) (let ((.def_46 (not A21))) (let ((.def_47 (or .def_46 A9))) (let ((.def_48 (not .def_47))) (let ((.def_49 (= .def_48 .def_45))) (let ((.def_50 (not A16))) (let ((.def_51 (and .def_4 .def_50))) (let ((.def_52 (not A19))) (let ((.def_53 (= .def_52 .def_18))) (let ((.def_54 (and .def_53 .def_51))) (let ((.def_55 (or .def_54 .def_49))) (let ((.def_56 (and .def_55 .def_44))) (let ((.def_57 (and .def_56 .def_30))) (let ((.def_58 (not .def_57))) (let ((.def_59 (or .def_17 A9))) (let ((.def_60 (not .def_59))) (let ((.def_61 (not A6))) (let ((.def_62 (or .def_61 A17))) (let ((.def_63 (not .def_62))) (let ((.def_64 (or .def_63 .def_60))) (let ((.def_65 (not .def_64))) (let ((.def_66 (not A22))) (let ((.def_67 (= .def_66 A3))) (let ((.def_68 (not .def_67))) (let ((.def_69 (and A5 A0))) (let ((.def_70 (or .def_69 .def_68))) (let ((.def_71 (and .def_70 .def_65))) (let ((.def_72 (not .def_71))) (let ((.def_73 (or A0 A0))) (let ((.def_74 (not A3))) (let ((.def_75 (and .def_52 .def_74))) (let ((.def_76 (not .def_75))) (let ((.def_77 (or .def_76 .def_73))) (let ((.def_78 (not .def_77))) (let ((.def_79 (not A9))) (let ((.def_80 (= A27 .def_79))) (let ((.def_81 (not .def_80))) (let ((.def_82 (not A7))) (let ((.def_83 (and .def_82 A2))) (let ((.def_84 (or .def_83 .def_81))) (let ((.def_85 (not .def_84))) (let ((.def_86 (or .def_85 .def_78))) (let ((.def_87 (not .def_86))) (let ((.def_88 (and .def_87 .def_72))) (let ((.def_89 (not A17))) (let ((.def_90 (and .def_89 .def_61))) (let ((.def_91 (or .def_61 A24))) (let ((.def_92 (= .def_91 .def_90))) (let ((.def_93 (or A2 .def_39))) (let ((.def_94 (or .def_9 A28))) (let ((.def_95 (or .def_94 .def_93))) (let ((.def_96 (= .def_95 .def_92))) (let ((.def_97 (= .def_82 .def_38))) (let ((.def_98 (and A27 .def_4))) (let ((.def_99 (not .def_98))) (let ((.def_100 (= .def_99 .def_97))) (let ((.def_101 (not A1))) (let ((.def_102 (and .def_101 A26))) (let ((.def_103 (= A28 A29))) (let ((.def_104 (not .def_103))) (let ((.def_105 (and .def_104 .def_102))) (let ((.def_106 (not .def_105))) (let ((.def_107 (or .def_106 .def_100))) (let ((.def_108 (not .def_107))) (let ((.def_109 (or .def_108 .def_96))) (let ((.def_110 (not .def_109))) (let ((.def_111 (or .def_110 .def_88))) (let ((.def_112 (or .def_111 .def_58))) (let ((.def_113 (not .def_112))) .def_113)))))))))))))))))))))))))))))))))))))))))))))))))))))))))))))))))))))))))))))))))))))))))))))))))))))))))))))))))))
(check-sat)
